NAME: cluster_5
TYPE: TSP
DIMENSION: 16
EDGE_WEIGHT_TYPE: EUC_2D
NODE_COORD_SECTION
1 12000.00 16000.00
2 196.57 19602.00
3 286.88 21449.32
4 3396.93 19804.39
5 3896.52 23412.39
6 5282.98 22266.64
7 9122.53 22399.39
8 4881.07 15237.36
9 7849.14 22065.53
10 3001.26 20734.34
11 2679.68 19154.02
12 2062.62 19740.65
13 8476.71 21596.89
14 10211.28 22547.67
15 5215.04 21763.87
16 7365.10 21808.32
EOF
